5
22
55
40	23
1	4	7	11	7	9	11	4	5	4	
2	3	18	3	19	4	7	2	
3	2	22	2	18	4	
4	1	8	6	
5	1	16	2	
6	2	7	9	6	2	
7	3	11	5	19	4	7	3	
8	4	10	3	12	4	5	3	18	3	
9	3	5	10	4	12	16	4	
10	1	19	3	
11	3	5	6	6	6	5	4	
12	5	10	4	7	5	17	4	6	5	11	2	
13	2	5	6	6	5	
14	4	8	3	8	4	13	3	20	4	
15	1	18	3	
16	3	8	6	5	3	7	7	
17	2	8	2	23	2	
18	1	7	10	
19	1	6	7	
20	3	11	4	8	9	4	3	
21	3	7	11	23	2	4	5	
22	3	5	3	7	3	4	8	
